benchmarks/VRPTW/TSPTW/ins/n100w40.003.txt


!! n100w40.003    39.78 845


CUST NO.   XCOORD.   YCOORD.    DEMAND   READY TIME   DUE DATE   SERVICE TIME


    1      15.00      37.00       0.00       0.00     883.00       0.00
    2      15.00      47.00       0.00     542.00     595.00       0.00
    3      18.00      41.00       0.00     215.00     254.00       0.00
    4      16.00      28.00       0.00       0.00      45.00       0.00
    5       8.00      12.00       0.00     428.00     495.00       0.00
    6      39.00       2.00       0.00     783.00     841.00       0.00
    7       5.00      17.00       0.00      24.00      58.00       0.00
    8      38.00      46.00       0.00     263.00     314.00       0.00
    9      10.00      10.00       0.00     459.00     504.00       0.00
   10      16.00       4.00       0.00     473.00     497.00       0.00
   11      42.00      12.00       0.00     109.00     128.00       0.00
   12      29.00      29.00       0.00     176.00     236.00       0.00
   13      31.00      38.00       0.00     151.00     205.00       0.00
   14      31.00      29.00       0.00     600.00     634.00       0.00
   15      21.00      10.00       0.00      56.00      90.00       0.00
   16       2.00       9.00       0.00     443.00     494.00       0.00
   17      24.00      18.00       0.00     418.00     459.00       0.00
   18      37.00      39.00       0.00     308.00     318.00       0.00
   19      30.00      39.00       0.00     245.00     274.00       0.00
   20      34.00      12.00       0.00      75.00     110.00       0.00
   21      18.00      12.00       0.00      60.00      76.00       0.00
   22      20.00       7.00       0.00      71.00     101.00       0.00
   23      22.00      16.00       0.00      57.00     115.00       0.00
   24      47.00      19.00       0.00     353.00     385.00       0.00
   25      39.00      32.00       0.00     125.00     171.00       0.00
   26      48.00       2.00       0.00     624.00     675.00       0.00
   27      41.00       7.00       0.00     344.00     415.00       0.00
   28      35.00      35.00       0.00     167.00     201.00       0.00
   29      29.00      11.00       0.00     397.00     420.00       0.00
   30      25.00       3.00       0.00      59.00     102.00       0.00
   31      35.00      11.00       0.00     381.00     424.00       0.00
   32      36.00      33.00       0.00     154.00     187.00       0.00
   33      11.00      43.00       0.00     224.00     249.00       0.00
   34      29.00      23.00       0.00     657.00     678.00       0.00
   35      18.00      11.00       0.00      31.00     105.00       0.00
   36      43.00      17.00       0.00     126.00     135.00       0.00
   37      44.00      44.00       0.00     273.00     305.00       0.00
   38      48.00       4.00       0.00     348.00     380.00       0.00
   39      21.00      41.00       0.00     216.00     230.00       0.00
   40      13.00       0.00       0.00     681.00     726.00       0.00
   41      20.00      30.00       0.00       2.00      34.00       0.00
   42      13.00      34.00       0.00       0.00      18.00       0.00
   43      39.00      27.00       0.00     577.00     598.00       0.00
   44      21.00       6.00       0.00      63.00      88.00       0.00
   45      13.00      16.00       0.00      21.00      83.00       0.00
   46      17.00      30.00       0.00       0.00      10.00       0.00
   47      21.00      42.00       0.00     188.00     241.00       0.00
   48      49.00      35.00       0.00     123.00     173.00       0.00
   49       9.00      30.00       0.00       0.00      62.00       0.00
   50      34.00      37.00       0.00     150.00     184.00       0.00
   51       5.00      31.00       0.00     532.00     571.00       0.00
   52      31.00       0.00       0.00     386.00     413.00       0.00
   53      46.00      49.00       0.00     274.00     309.00       0.00
   54      29.00       4.00       0.00     385.00     404.00       0.00
   55      47.00       7.00       0.00     337.00     371.00       0.00
   56      32.00      35.00       0.00     154.00     190.00       0.00
   57      31.00       4.00       0.00     609.00     647.00       0.00
   58      16.00      20.00       0.00     408.00     482.00       0.00
   59      39.00      16.00       0.00      77.00     129.00       0.00
   60      25.00      15.00       0.00      91.00     104.00       0.00
   61      11.00       1.00       0.00     467.00     498.00       0.00
   62      49.00      23.00       0.00     107.00     152.00       0.00
   63      29.00      11.00       0.00      92.00     127.00       0.00
   64      12.00       1.00       0.00     474.00     527.00       0.00
   65      38.00      12.00       0.00     111.00     133.00       0.00
   66      21.00      28.00       0.00     201.00     221.00       0.00
   67      27.00      13.00       0.00      86.00     115.00       0.00
   68      38.00       1.00       0.00     351.00     392.00       0.00
   69      23.00      34.00       0.00     176.00     236.00       0.00
   70      45.00      23.00       0.00     101.00     147.00       0.00
   71       7.00      23.00       0.00      29.00      46.00       0.00
   72      47.00       2.00       0.00     352.00     405.00       0.00
   73      33.00      22.00       0.00     585.00     610.00       0.00
   74      38.00      32.00       0.00     157.00     171.00       0.00
   75       9.00      10.00       0.00     448.00     481.00       0.00
   76      34.00      15.00       0.00      73.00     115.00       0.00
   77      39.00      32.00       0.00     137.00     206.00       0.00
   78      39.00      50.00       0.00     295.00     328.00       0.00
   79      23.00      25.00       0.00     414.00     462.00       0.00
   80      43.00      48.00       0.00     240.00     305.00       0.00
   81       3.00      40.00       0.00     706.00     781.00       0.00
   82      31.00      45.00       0.00     550.00     605.00       0.00
   83      28.00      17.00       0.00     410.00     443.00       0.00
   84      50.00      37.00       0.00     301.00     367.00       0.00
   85       6.00      23.00       0.00      42.00      74.00       0.00
   86      48.00      30.00       0.00     144.00     179.00       0.00
   87      18.00      36.00       0.00     230.00     252.00       0.00
   88       1.00       6.00       0.00     475.00     519.00       0.00
   89      24.00      18.00       0.00     438.00     471.00       0.00
   90      32.00      47.00       0.00     229.00     281.00       0.00
   91      23.00      39.00       0.00     212.00     245.00       0.00
   92      36.00      39.00       0.00     150.00     207.00       0.00
   93      49.00      42.00       0.00     273.00     313.00       0.00
   94      28.00      34.00       0.00     158.00     201.00       0.00
   95      24.00      27.00       0.00     170.00     204.00       0.00
   96       9.00      22.00       0.00       0.00      40.00       0.00
   97      46.00      32.00       0.00     130.00     177.00       0.00
   98      31.00      45.00       0.00     251.00     285.00       0.00
   99      17.00      42.00       0.00     217.00     259.00       0.00
  100       3.00       5.00       0.00     442.00     501.00       0.00
  101      16.00       6.00       0.00     741.00     813.00       0.00
  999       0.00       0.00       0.00       0.00       0.00       0.00
