benchmarks/VRPTW/TSPTW/solution/n100w40.003.txt.solution
1 42 46 41 4 49 96 71 85 7 45 21 35 22 44 30 15 23 60 67 63 20 76 59 65 11 36 70 62 86 48 97 77 25 74 32 28 50 92 56 13 94 12 95 66 69 91 39 47 3 99 33 87 19 98 90 8 37 93 53 80 78 18 84 24 55 38 72 27 68 52 54 29 31 83 17 89 79 58 5 75 9 10 64 61 100 88 16 51 2 82 43 14 73 57 26 34 40 101 81 6 
736
